min: c;

c = 3.36456230969725 * u2_t7_h3 + 3.08645707645783 * u2_t7_h4 + 3.58453817480728 * u2_t2_h5 + 3.58453817480728 * u2_t3_h5 + 3.58453817480728 * u2_t7_h5 + 3.49922561145857 * u2_t2_h6 + 3.49922561145857 * u2_t3_h6 + 3.49922561145857 * u2_t4_h6 + 3.49922561145857 * u2_t7_h6 + 3.49922561145857 * u2_t10_h6 + 4.40143526202266 * u2_t2_h7 + 4.40143526202266 * u2_t3_h7 + 4.40143526202266 * u2_t4_h7 + 4.40143526202266 * u2_t7_h7 + 4.40143526202266 * u2_t10_h7 + 5.14716844275582 * u2_t2_h8 + 5.14716844275582 * u2_t3_h8 + 5.14716844275582 * u2_t4_h8 + 5.14716844275582 * u2_t7_h8 + 5.14716844275582 * u2_t10_h8 + 5.31289168102192 * u2_t2_h9 + 5.31289168102192 * u2_t3_h9 + 5.31289168102192 * u2_t4_h9 + 5.31289168102192 * u2_t7_h9 + 5.31289168102192 * u2_t10_h9 + 5.45200382040061 * u2_t2_h10 + 5.45200382040061 * u2_t3_h10 + 5.45200382040061 * u2_t4_h10 + 5.45200382040061 * u2_t7_h10 + 5.45200382040061 * u2_t10_h10 + 4.15640528850409 * u2_t1_h11 + 4.15640528850409 * u2_t2_h11 + 4.15640528850409 * u2_t3_h11 + 4.15640528850409 * u2_t4_h11 + 4.15640528850409 * u2_t7_h11 + 4.15640528850409 * u2_t10_h11 + 6.35948131717337 * u2_t1_h12 + 6.35948131717337 * u2_t3_h12 + 6.35948131717337 * u2_t4_h12 + 6.35948131717337 * u2_t7_h12 + 4.16797429509129 * u2_t1_h13 + 4.16797429509129 * u2_t3_h13 + 4.16797429509129 * u2_t4_h13 + 4.16797429509129 * u2_t7_h13 + 4.16797429509129 * u2_t9_h13 + 5.80626981458412 * u2_t1_h14 + 5.80626981458412 * u2_t3_h14 + 5.80626981458412 * u2_t4_h14 + 5.80626981458412 * u2_t7_h14 + 5.80626981458412 * u2_t9_h14 + 5.87162331023264 * u2_t1_h15 + 5.87162331023264 * u2_t3_h15 + 5.87162331023264 * u2_t4_h15 + 5.87162331023264 * u2_t7_h15 + 5.87162331023264 * u2_t9_h15 + 5.61406774419113 * u2_t1_h16 + 5.61406774419113 * u2_t3_h16 + 5.61406774419113 * u2_t4_h16 + 5.61406774419113 * u2_t7_h16 + 5.61406774419113 * u2_t9_h16 + 6.56620461049385 * u2_t1_h17 + 6.56620461049385 * u2_t3_h17 + 6.56620461049385 * u2_t4_h17 + 6.56620461049385 * u2_t7_h17 + 6.56620461049385 * u2_t9_h17 + 6.17375586095476 * u2_t1_h18 + 6.17375586095476 * u2_t3_h18 + 6.17375586095476 * u2_t4_h18 + 6.17375586095476 * u2_t6_h18 + 6.17375586095476 * u2_t7_h18 + 5.97020433925531 * u2_t1_h19 + 5.97020433925531 * u2_t3_h19 + 5.97020433925531 * u2_t4_h19 + 5.97020433925531 * u2_t5_h19 + 5.97020433925531 * u2_t6_h19 + 5.97020433925531 * u2_t7_h19 + 5.14203416966082 * u2_t1_h20 + 5.14203416966082 * u2_t3_h20 + 5.14203416966082 * u2_t4_h20 + 5.14203416966082 * u2_t6_h20 + 5.14203416966082 * u2_t7_h20 + 5.38009330766337 * u2_t1_h21 + 5.38009330766337 * u2_t3_h21 + 5.38009330766337 * u2_t6_h21 + 5.38009330766337 * u2_t7_h21 + 5.38009330766337 * u2_t8_h21 + 5.23886569223511 * u2_t1_h22 + 5.23886569223511 * u2_t3_h22 + 5.23886569223511 * u2_t7_h22 + 5.23886569223511 * u2_t8_h22 + 5.55751518213488 * u2_t3_h23 + 5.55751518213488 * u2_t7_h23 + 5.55751518213488 * u2_t8_h23;
0 <= u2_t1_h11 <= 1;
0 <= u2_t1_h12 <= 1;
0 <= u2_t1_h13 <= 1;
0 <= u2_t1_h14 <= 1;
0 <= u2_t1_h15 <= 1;
0 <= u2_t1_h16 <= 1;
0 <= u2_t1_h17 <= 1;
0 <= u2_t1_h18 <= 1;
0 <= u2_t1_h19 <= 1;
0 <= u2_t1_h20 <= 1;
0 <= u2_t1_h21 <= 1;
0 <= u2_t1_h22 <= 1;
u2_t1_h11 + u2_t1_h12 + u2_t1_h13 + u2_t1_h14 + u2_t1_h15 + u2_t1_h16 + u2_t1_h17 + u2_t1_h18 + u2_t1_h19 + u2_t1_h20 + u2_t1_h21 + u2_t1_h22 = 2;
0 <= u2_t2_h5 <= 1;
0 <= u2_t2_h6 <= 1;
0 <= u2_t2_h7 <= 1;
0 <= u2_t2_h8 <= 1;
0 <= u2_t2_h9 <= 1;
0 <= u2_t2_h10 <= 1;
0 <= u2_t2_h11 <= 1;
u2_t2_h5 + u2_t2_h6 + u2_t2_h7 + u2_t2_h8 + u2_t2_h9 + u2_t2_h10 + u2_t2_h11 = 2;
0 <= u2_t3_h5 <= 1;
0 <= u2_t3_h6 <= 1;
0 <= u2_t3_h7 <= 1;
0 <= u2_t3_h8 <= 1;
0 <= u2_t3_h9 <= 1;
0 <= u2_t3_h10 <= 1;
0 <= u2_t3_h11 <= 1;
0 <= u2_t3_h12 <= 1;
0 <= u2_t3_h13 <= 1;
0 <= u2_t3_h14 <= 1;
0 <= u2_t3_h15 <= 1;
0 <= u2_t3_h16 <= 1;
0 <= u2_t3_h17 <= 1;
0 <= u2_t3_h18 <= 1;
0 <= u2_t3_h19 <= 1;
0 <= u2_t3_h20 <= 1;
0 <= u2_t3_h21 <= 1;
0 <= u2_t3_h22 <= 1;
0 <= u2_t3_h23 <= 1;
u2_t3_h5 + u2_t3_h6 + u2_t3_h7 + u2_t3_h8 + u2_t3_h9 + u2_t3_h10 + u2_t3_h11 + u2_t3_h12 + u2_t3_h13 + u2_t3_h14 + u2_t3_h15 + u2_t3_h16 + u2_t3_h17 + u2_t3_h18 + u2_t3_h19 + u2_t3_h20 + u2_t3_h21 + u2_t3_h22 + u2_t3_h23 = 1;
0 <= u2_t4_h6 <= 1;
0 <= u2_t4_h7 <= 1;
0 <= u2_t4_h8 <= 1;
0 <= u2_t4_h9 <= 1;
0 <= u2_t4_h10 <= 1;
0 <= u2_t4_h11 <= 1;
0 <= u2_t4_h12 <= 1;
0 <= u2_t4_h13 <= 1;
0 <= u2_t4_h14 <= 1;
0 <= u2_t4_h15 <= 1;
0 <= u2_t4_h16 <= 1;
0 <= u2_t4_h17 <= 1;
0 <= u2_t4_h18 <= 1;
0 <= u2_t4_h19 <= 1;
0 <= u2_t4_h20 <= 1;
u2_t4_h6 + u2_t4_h7 + u2_t4_h8 + u2_t4_h9 + u2_t4_h10 + u2_t4_h11 + u2_t4_h12 + u2_t4_h13 + u2_t4_h14 + u2_t4_h15 + u2_t4_h16 + u2_t4_h17 + u2_t4_h18 + u2_t4_h19 + u2_t4_h20 = 3;
0 <= u2_t5_h19 <= 1;
u2_t5_h19 = 1;
0 <= u2_t6_h18 <= 1;
0 <= u2_t6_h19 <= 1;
0 <= u2_t6_h20 <= 1;
0 <= u2_t6_h21 <= 1;
u2_t6_h18 + u2_t6_h19 + u2_t6_h20 + u2_t6_h21 = 2;
0 <= u2_t7_h3 <= 1;
0 <= u2_t7_h4 <= 1;
0 <= u2_t7_h5 <= 1;
0 <= u2_t7_h6 <= 1;
0 <= u2_t7_h7 <= 1;
0 <= u2_t7_h8 <= 1;
0 <= u2_t7_h9 <= 1;
0 <= u2_t7_h10 <= 1;
0 <= u2_t7_h11 <= 1;
0 <= u2_t7_h12 <= 1;
0 <= u2_t7_h13 <= 1;
0 <= u2_t7_h14 <= 1;
0 <= u2_t7_h15 <= 1;
0 <= u2_t7_h16 <= 1;
0 <= u2_t7_h17 <= 1;
0 <= u2_t7_h18 <= 1;
0 <= u2_t7_h19 <= 1;
0 <= u2_t7_h20 <= 1;
0 <= u2_t7_h21 <= 1;
0 <= u2_t7_h22 <= 1;
0 <= u2_t7_h23 <= 1;
u2_t7_h3 + u2_t7_h4 + u2_t7_h5 + u2_t7_h6 + u2_t7_h7 + u2_t7_h8 + u2_t7_h9 + u2_t7_h10 + u2_t7_h11 + u2_t7_h12 + u2_t7_h13 + u2_t7_h14 + u2_t7_h15 + u2_t7_h16 + u2_t7_h17 + u2_t7_h18 + u2_t7_h19 + u2_t7_h20 + u2_t7_h21 + u2_t7_h22 + u2_t7_h23 = 3;
0 <= u2_t8_h21 <= 1;
0 <= u2_t8_h22 <= 1;
0 <= u2_t8_h23 <= 1;
u2_t8_h21 + u2_t8_h22 + u2_t8_h23 = 2;
0 <= u2_t9_h13 <= 1;
0 <= u2_t9_h14 <= 1;
0 <= u2_t9_h15 <= 1;
0 <= u2_t9_h16 <= 1;
0 <= u2_t9_h17 <= 1;
u2_t9_h13 + u2_t9_h14 + u2_t9_h15 + u2_t9_h16 + u2_t9_h17 = 1;
0 <= u2_t10_h6 <= 1;
0 <= u2_t10_h7 <= 1;
0 <= u2_t10_h8 <= 1;
0 <= u2_t10_h9 <= 1;
0 <= u2_t10_h10 <= 1;
0 <= u2_t10_h11 <= 1;
u2_t10_h6 + u2_t10_h7 + u2_t10_h8 + u2_t10_h9 + u2_t10_h10 + u2_t10_h11 = 2;
